%chk=ts-EDY3_b.chk
%mem=60GB
%nprocshared=16
#p opt=(calcall,ts,cartesian,noeigentest) freq ub3lyp/6-31g(d) guess=(mix,always) pop=always empiricaldispersion=gd3

Title Card Required

-4 1
 S                 11.98390292   -8.53814165    3.95614101
 O                 11.39241775   -7.08369496    4.31445354
 O                 12.89107155   -8.01697915    2.69718310
 O                 12.82790356   -8.96952836    5.04712673
 O                 10.93466990   -9.40685972    3.42901327
 C                 12.70856893   -8.50852179    1.33772237
 C                 11.27325697   -8.30913330    0.78941467
 C                 13.27430758   -9.93972158    1.19948883
 H                 13.36993397   -7.84137926    0.77666555
 C                 10.67302170   -6.93675332    1.10957410
 O                 11.42977818   -8.37755427   -0.66716466
 H                 10.61877044   -9.11730332    1.11247067
 C                 14.59392418  -10.15584744    1.94837287
 O                 13.52961402  -10.07549576   -0.22064149
 H                 12.53915699  -10.67947050    1.53174976
 O                  9.37395127   -6.79836399    0.57036623
 H                 10.69824467   -6.74325811    2.18228414
 H                 11.28716086   -6.17661235    0.61595421
 S                 10.19420659   -8.87836738   -1.59205088
 O                 14.22749268  -10.68021724    3.24325015
 H                 15.14618617   -9.21931099    2.06951187
 H                 15.20136102  -10.89064158    1.41935874
 S                 13.44098494  -11.56492240   -0.89552473
 C                  8.29666060   -7.42441409    1.29007354
 O                 10.94064266  -10.15194774   -2.33307795
 O                  9.94278574   -7.86194909   -2.58560416
 O                  9.16993257   -9.52893561   -0.80221523
 S                 15.43013169  -10.90999776    4.30194251
 O                 11.92790655  -11.98736962   -0.55111588
 O                 14.29877634  -12.48520672   -0.18394786
 O                 13.57535158  -11.28056584   -2.31468220
 C                  8.16716077   -6.97686196    2.74737040
 H                  7.40990320   -7.14147071    0.71535101
 H                  8.38655448   -8.51594815    1.23746266
 O                 15.80090412   -9.34405243    4.60671716
 O                 14.81757757  -11.51110791    5.45933107
 O                 16.58355546  -11.48700209    3.62488066
 C                  8.12516670   -5.45264982    2.91394531
 H                  9.00841580   -7.38570350    3.31812099
 H                  7.26706961   -7.44701865    3.16275192
 C                  8.44535001   -4.95343676    4.33951446
 H                  7.15661134   -5.05709852    2.58327222
 H                  8.87165302   -5.01090698    2.24501858
 C                  7.32140280   -5.04374610    5.34934831
 H                  9.31492402   -5.48865653    4.72082099
 C                  6.94986404   -6.19446962    6.07805045
 C                  6.54323961   -3.91765885    5.64937183
 C                  5.92064561   -6.21361691    7.02416638
 O                  7.47963770   -7.47540202    5.83379898
 C                  5.51459729   -3.92549013    6.59419157
 C                  6.60832479   -2.52940372    5.07487874
 C                  5.18333772   -5.06395205    7.30677832
 C                  8.76073847   -7.82694397    6.05902150
 C                  4.90681275   -2.56636165    6.66201077
 N                  5.61246202   -1.79460714    5.73312713
 O                  7.34248696   -2.07813999    4.21622441
 H                  4.38401417   -5.05822464    8.04017753
 C                  8.94541583   -9.30498684    5.86348243
 O                  9.64030563   -7.03429133    6.35508150
 O                  3.99536509   -2.16970274    7.35987416
 C                  5.32426858   -0.39642176    5.46931878
 H                  8.16258145   -9.85359628    6.39407313
 H                  8.86806537   -9.54475282    4.79888320
 H                  9.93130781   -9.60448521    6.22035064
 H                  5.24352690    0.14370286    6.41567733
 H                  4.38167861   -0.29264866    4.92241904
 H                  6.14162482    0.00597637    4.86929227
 H                  6.00398456   -7.27272284    7.95928757
 C                  6.08605103   -8.31565756    8.88013064
 C                  6.17422277   -8.90121251    7.48014371
 H                  5.98734498   -9.98407214    7.47534309
 H                  5.43765613   -8.41776638    6.82735276
 H                  7.16929442   -8.71177196    7.07170865
 C                  7.27562990   -8.69271736    9.74120114
 N                  4.99816400   -8.60785923    9.75401178
 H                  4.32504310   -9.18877511    9.26404777
 C                  4.23823644   -7.71788166   10.50790718
 C                  4.97537989   -6.61256600   11.23734285
 H                  5.72379649   -6.11840784   10.61049434
 H                  4.23561808   -5.88542108   11.57420083
 H                  5.49984503   -7.02574342   12.10515029
 O                  3.02795309   -7.87032878   10.57777746
 N                  7.13423692   -9.55517220   10.80338868
 H                  8.03236672   -9.69366076   11.25640696
 C                  6.19375275  -10.66515507   10.93914248
 H                  6.13421618  -10.94905906   11.99370284
 H                  5.20133588  -10.36180230   10.61114977
 H                  6.50659508  -11.54459638   10.35898402
 O                  8.36901430   -8.17874197    9.50397352

