%mem=60GB
%nprocshared=16
#p opt=(calcall,cartesian,noeigentest) freq rb3lyp/6-31g(d) guess=(mix,always) pop=always empiricaldispersion=gd3

Title Card Required

-4 1
 S                 -0.89284800   -1.71921000   -0.22368000
 O                  0.54485400   -1.53670200   -0.92607700
 O                 -1.72148400   -0.91479000   -1.38377100
 O                 -1.23281300   -3.12381900   -0.23705100
 O                 -0.96800200   -0.93966700    1.00923900
 C                 -2.49978100    0.28557000   -1.10728500
 C                 -1.67562400    1.42954700   -0.46494600
 C                 -3.80972500   -0.07650100   -0.37213000
 H                 -2.77116300    0.60415500   -2.11828600
 C                 -0.29925400    1.63599000   -1.10463200
 O                 -2.45966800    2.63821200   -0.73918600
 H                 -1.59971200    1.29504900    0.61301700
 C                 -4.48014000   -1.35020500   -0.89857800
 O                 -4.68394900    1.04566500   -0.64937000
 H                 -3.63484000   -0.17260400    0.70409100
 O                  0.40202000    2.70237800   -0.49758000
 H                  0.27367200    0.70835100   -1.09962000
 H                 -0.45298900    1.93096500   -2.14770300
 S                 -2.36139700    3.91189800    0.26128000
 O                 -3.99279100   -2.42273400   -0.06304500
 H                 -4.21523700   -1.54268700   -1.94239100
 H                 -5.56186800   -1.26920700   -0.78875200
 S                 -5.83543900    1.43393000    0.44837100
 C                  1.04136200    2.43167500    0.76275100
 O                 -3.95789800    4.03034200    0.66803600
 O                 -2.00899100    5.06905000   -0.52629600
 O                 -1.74112700    3.55197900    1.51903200
 S                 -4.45878900   -3.92170500   -0.45788800
 O                 -4.94977700    1.71900700    1.76017100
 O                 -6.65083000    0.27770600    0.74392900
 O                 -6.37214800    2.67773000   -0.07872100
 C                  2.04050200    1.27353900    0.72771500
 H                  1.54495200    3.37367100    0.99884900
 H                  0.28979100    2.25777800    1.54197900
 O                 -3.60808600   -4.09295900   -1.84696000
 O                 -3.91722900   -4.77804200    0.56656500
 O                 -5.86725400   -3.92166400   -0.82931700
 C                  2.65875699    1.07252610   -0.43452783
 H                  1.48783400    0.33399600    0.61620400
 H                  2.52552400    1.22060800    1.71041800
 C                  3.79761000    0.07999200   -0.75369600
 H                  3.80948600    2.17810100   -0.15890400
 H                  2.56314100    1.73703700   -1.30345800
 C                  4.92350300   -0.33802000    0.16761200
 H                  3.06568900   -0.72532800   -0.81505700
 H                  3.95552153   -0.38078915   -2.05043179
 C                  4.78156000   -1.01155800    1.40025600
 C                  6.25682100   -0.07706800   -0.17559600
 C                  5.86092600   -1.40270900    2.19823000
 O                  3.54086200   -1.23922800    2.02470900
 C                  7.34218000   -0.46544500    0.61308000
 C                  6.81336600    0.63315600   -1.37866300
 C                  7.17423400   -1.14025900    1.80891800
 C                  2.58285000   -2.05546300    1.54356500
 C                  8.60462700   -0.03472600   -0.05170600
 N                  8.20688400    0.60724300   -1.22901100
 O                  6.23116300    1.14736500   -2.31490500
 H                  8.02452900   -1.43939500    2.41252500
 C                  1.46925600   -2.20845200    2.54028700
 O                  2.62135000   -2.56927700    0.43717400
 O                  9.75271600   -0.18863000    0.31338800
 C                  9.13786700    1.19838800   -2.17314600
 H                  1.87972900   -2.42744000    3.52967300
 H                  0.90574200   -1.27293700    2.60436500
 H                  0.79479700   -3.00374500    2.22145900
 H                  9.93751200    0.48626200   -2.39061500
 H                  9.58044500    2.11037600   -1.75993100
 H                  8.58457600    1.43945900   -3.08187100
 C                  4.11536364   -0.84719180   -3.36298788
 C                  3.55361893    0.43133488   -3.94111280
 H                  3.93350241    0.59203493   -4.95767934
 H                  2.46386394    0.37763292   -3.98584589
 H                  3.84882483    1.28046671   -3.31778072
 C                  5.59738365   -0.95890998   -3.75070279
 N                  3.55457460   -2.10125734   -3.22354924
 H                  2.54385035   -2.11823496   -3.37777291
 C                  3.95133822   -3.21578816   -2.44520733
 C                  5.34144600   -3.24195134   -1.85312592
 H                  5.55140633   -2.34641802   -1.26185446
 H                  5.41001262   -4.12955857   -1.22383083
 H                  6.09971447   -3.29809450   -2.64126331
 O                  3.15183506   -4.12113195   -2.31054396
 N                  5.86007387   -1.27597788   -5.04902475
 H                  6.84924392   -1.22673064   -5.26707967
 C                  4.93511703   -1.51469392   -6.14994065
 H                  5.35860909   -2.27564984   -6.81146029
 H                  3.98530550   -1.89275412   -5.76919179
 H                  4.74977809   -0.60575702   -6.73549023
 O                  6.49263730   -0.74630811   -2.94217219

